76
150
105	9
104	12
103	6
102	9
101	15
100	4
99	15
98	13
97	9
96	7
95	11
94	6
93	12
92	4
91	11
90	9
89	8
88	6
87	10
86	11
85	13
84	12
83	12
82	13
81	9
80	11
79	4
78	8
77	10
76	7
75	8
74	4
73	8
72	14
71	12
70	8
69	7
68	7
67	10
66	15
65	13
64	10
63	11
62	11
61	7
60	10
59	11
58	4
57	9
56	9
55	9
54	15
53	7
52	11
51	6
50	8
49	7
48	8
47	15
46	9
45	14
44	17
43	5
42	9
41	7
40	14
39	12
38	10
37	13
36	10
35	12
34	13
33	13
32	15
31	7
30	10
